(declare-fun Constructed_Argument_t () String)
(declare-fun CreateAsClass () Bool)
(declare-fun Constructed_Argument () Bool)
(declare-fun ExpandObjSwitcher () Real)
(declare-fun Constructed_Argument_2_t () String)
(declare-fun CreateAsClass_2 () Bool)
(declare-fun Constructed_Argument_2 () Bool)
(assert (= Constructed_Argument_t "boolean"))
(assert (not CreateAsClass))
(assert (not Constructed_Argument))
(assert (= ExpandObjSwitcher 0.0))
(assert (= Constructed_Argument_2_t "boolean"))
(assert CreateAsClass_2)
(assert Constructed_Argument_2)
(check-sat)
